c 9th DIMACS Implementation Challenge: Shortest Paths
c http://www.dis.uniroma1.it/~challenge9
c TIGER/Line graph USA-road-t.NY
c
p sp 6 8
c graph contains 6 nodes and 8 arcs
c
a 1 2 2008
a 2 1 2008
a 1 3 10
a 3 1 10
a 3 4 395
a 4 3 395
a 5 6 1935
a 6 5 1935
